problems/csplib-prob010/SocialGolfersProblem-models/compact/O2/lingeling/model_1-ord26-3-9-5-solution000001.eprime-solution
language ESSENCE' 1.0

letting sched_ExplicitR17R3R2_PartitionAsSet_ExplicitR2_Occurrence be
        [[[false, false, false, false, false, false, false, false, false, false, false, false, false, false, false,
           false, false, false, false, false, false, false, false, false, false, true, false, false, true, false, false,
           false, false, false, false, false, false, false, false, false, true, false, true, false, true; int(1..45)],
          [false, false, false, false, false, false, false, false, false, false, false, false, false, false, true,
           false, false, true, false, false, false, false, false, true, false, false, false, false, false, false, true,
           false, false, false, false, false, false, false, false, false, false, true, false, false, false; int(1..45)],
          [false, false, false, false, false, false, false, false, false, false, false, false, true, false, false,
           false, false, false, false, false, true, false, true, false, false, false, false, false, false, false, false,
           false, false, true, false, false, false, true, false, false, false, false, false, false, false; int(1..45)],
          [false, false, false, false, false, false, false, false, false, false, true, false, false, false, false, true,
           false, false, true, true, false, false, false, false, false, false, false, false, false, false, false, false,
           true, false, false, false, false, false, false, false, false, false, false, false, false; int(1..45)],
          [false, false, false, false, false, false, false, false, false, true, false, true, false, false, false, false,
           false, false, false, false, false, false, false, false, true, false, false, false, false, false, false, true,
           false, false, false, false, false, false, false, true, false, false, false, false, false; int(1..45)],
          [false, false, false, false, false, true, false, false, false, false, false, false, false, true, false, false,
           false, false, false, false, false, false, false, false, false, false, false, false, false, false, false,
           false, false, false, true, false, true, false, false, false, false, false, false, true, false; int(1..45)],
          [false, false, false, false, true, false, false, false, false, false, false, false, false, false, false,
           false, true, false, false, false, false, true, false, false, false, false, false, false, false, true, false,
           false, false, false, false, false, false, false, true, false, false, false, false, false, false; int(1..45)],
          [false, false, true, true, false, false, true, false, false, false, false, false, false, false, false, false,
           false, false, false, false, false, false, false, false, false, false, true, false, false, false, false,
           false, false, false, false, true, false, false, false, false, false, false, false, false, false; int(1..45)],
          [true, true, false, false, false, false, false, true, true, false, false, false, false, false, false, false,
           false, false, false, false, false, false, false, false, false, false, false, true, false, false, false,
           false, false, false, false, false, false, false, false, false, false, false, false, false,
           false; int(1..45)]; int(1..9)],
         [[false, false, false, false, false, false, false, false, false, false, false, false, false, false, false,
           false, true, false, false, false, false, false, false, true, false, false, false, true, false, false, false,
           false, false, false, false, true, false, false, false, true, false, false, false, false, false; int(1..45)],
          [false, false, false, false, false, false, false, false, false, false, false, false, false, false, true,
           false, false, false, false, true, false, false, true, false, false, false, false, false, true, true, false,
           false, false, false, false, false, false, false, false, false, false, false, false, false,
           false; int(1..45)],
          [false, false, false, false, false, false, false, false, false, false, false, false, false, true, false,
           false, false, false, true, false, true, false, false, false, false, true, true, false, false, false, false,
           false, false, false, false, false, false, false, false, false, false, false, false, false,
           false; int(1..45)],
          [false, false, false, false, false, false, false, false, false, true, false, false, false, false, false, true,
           false, false, false, false, false, true, false, false, false, false, false, false, false, false, true, false,
           false, false, true, false, false, false, false, false, false, false, false, false, false; int(1..45)],
          [false, false, false, false, false, false, true, false, false, false, false, true, false, false, false, false,
           false, false, false, false, false, false, false, false, false, false, false, false, false, false, false,
           false, false, false, false, false, false, true, true, false, false, false, false, true, false; int(1..45)],
          [false, false, false, false, false, true, false, true, false, false, false, false, true, false, false, false,
           false, false, false, false, false, false, false, false, false, false, false, false, false, false, false,
           false, false, false, false, false, false, false, false, false, false, true, true, false, false; int(1..45)],
          [false, false, true, false, true, false, false, false, true, false, false, false, false, false, false, false,
           false, false, false, false, false, false, false, false, true, false, false, false, false, false, false,
           false, false, false, false, false, false, false, false, false, true, false, false, false, false; int(1..45)],
          [false, true, false, true, false, false, false, false, false, false, false, false, false, false, false, false,
           false, false, false, false, false, false, false, false, false, false, false, false, false, false, false,
           true, true, false, false, false, true, false, false, false, false, false, false, false, false; int(1..45)],
          [true, false, false, false, false, false, false, false, false, false, true, false, false, false, false, false,
           false, true, false, false, false, false, false, false, false, false, false, false, false, false, false,
           false, false, true, false, false, false, false, false, false, false, false, false, false,
           true; int(1..45)]; int(1..9)],
         [[false, false, false, false, false, false, false, false, false, false, true, false, true, false, false, false,
           false, false, false, false, false, false, false, false, false, false, true, true, false, false, false, false,
           false, false, false, false, false, false, true, false, false, false, false, false, false; int(1..45)],
          [false, false, false, false, false, false, false, false, true, false, false, true, false, false, false, false,
           false, false, false, false, false, false, false, false, false, false, false, false, false, false, true,
           false, false, false, false, true, true, false, false, false, false, false, false, false, false; int(1..45)],
          [false, false, false, false, false, false, false, true, false, false, false, false, false, false, false,
           false, false, false, false, false, false, false, false, false, false, false, false, false, true, false,
           false, false, true, true, false, false, false, false, false, false, false, false, false, true,
           false; int(1..45)],
          [false, false, false, false, false, false, true, false, false, false, false, false, false, false, false,
           false, false, false, false, true, false, false, false, false, false, true, false, false, false, false, false,
           true, false, false, true, false, false, false, false, false, false, false, false, false, false; int(1..45)],
          [false, false, false, false, true, true, false, false, false, false, false, false, false, false, true, false,
           false, false, false, false, true, false, false, false, false, false, false, false, false, false, false,
           false, false, false, false, false, false, false, false, true, false, false, false, false, false; int(1..45)],
          [false, false, false, true, false, false, false, false, false, false, false, false, false, false, false, true,
           false, false, false, false, false, false, true, true, true, false, false, false, false, false, false, false,
           false, false, false, false, false, false, false, false, false, false, false, false, false; int(1..45)],
          [false, false, true, false, false, false, false, false, false, true, false, false, false, false, false, false,
           true, false, false, false, false, false, false, false, false, false, false, false, false, false, false,
           false, false, false, false, false, false, true, false, false, false, false, false, false, true; int(1..45)],
          [false, true, false, false, false, false, false, false, false, false, false, false, false, true, false, false,
           false, true, false, false, false, true, false, false, false, false, false, false, false, false, false, false,
           false, false, false, false, false, false, false, false, false, false, true, false, false; int(1..45)],
          [true, false, false, false, false, false, false, false, false, false, false, false, false, false, false,
           false, false, false, true, false, false, false, false, false, false, false, false, false, false, true, false,
           false, false, false, false, false, false, false, false, false, true, true, false, false,
           false; int(1..45)]; int(1..9)]; int(1..3)]
